 71 27 55 90 11 18 42 64 73 95 22 53 32  5 94 12 41 85 75 38
 13 11 73 43 27 33 57 42 71  3 11 49  8  3 47 58 23 79 99 23
 61 25 52 72 89 75 60 28 94 95 18 73 40 61 68 75 37 13 65  7
 21  8  5  8 58 59 85 35 84 97 93 60 99 29 94 41 51 87 97 11
 91 13  7 95 20 69 45 44 29 32 94 84 60 49 49 65 85 52  8 58